\Problem name: 

Minimize
OBJROW: -5 x_0 -10 x_1 -8 x_2
Subject To
constr(0):  3 x_0 + 5 x_1 + 2 x_2 <= 6
constr(1):  4 x_0 + 4 x_1 + 4 x_2 <= 7
Bounds
 0 <= x_0 <= 1
 0 <= x_1 <= 1
 0 <= x_2 <= 1
End
